nNurses = 56;
nHours = 38;
minHours = 7;
maxHours = 11;
maxConsec = 11;
maxPresence = 28;
demand = [9, 12, 16, 16, 14, 9, 9, 9, 6, 7, 8, 13, 17, 14, 12, 9, 12, 9, 11, 16, 11, 12, 10, 9, 8, 8, 13, 13, 14, 15, 15, 12, 17, 12, 14, 12, 14, 12];
